[[160,213,346,385,535,604,656,680,734,813,874,1000],[182,226,331,360,517,542,660,689,756,837,912,988],[217,330,351,390,492,537,605,657,687,832,910,992],[238,304,337,362,460,546,613,663,760,840,916,961],[113,130,144,189,199,248,292,341,430,453,487,587,670],[135,274,315,344,416,458,530,606,665,704,766,857,930],[170,266,309,372,428,476,521,588,648,691,742,848,941],[191,255,319,364,426,446,463,520,645,716,805,924,926]]